language ESSENCE' 1.0
$ Generated from file ../../j30/j3035_9.mm
letting jobs = 32
letting horizon = 62
letting resourcesRenew = 2
letting resourcesNonrenew = 2
letting successors = [[2, 3, 4], [5, 10, 11], [8, 16, 31], [12, 18], [6, 7, 9], [13, 17, 29], [16, 18, 22], [14, 21, 27], [21, 25], [15], [23, 25], [14, 16, 24], [20, 22], [26], [25], [28], [20], [19, 20, 24], [21], [31], [26, 30], [27, 31], [24, 26, 27], [28, 30], [29], [28], [30], [29], [32], [32], [32], []]
letting durations = [[0], [1, 2, 2], [3, 4, 8], [3, 5, 9], [4, 7, 8], [2, 4, 9], [2, 2, 8], [6, 7, 7], [3, 9, 9], [1, 5, 7], [1, 1, 1], [2, 6, 8], [1, 2, 2], [4, 6, 9], [4, 6, 10], [6, 7, 10], [2, 3, 7], [5, 9, 10], [1, 3, 6], [3, 5, 6], [6, 8, 10], [1, 2, 6], [6, 7, 10], [1, 2, 8], [1, 7, 8], [1, 7, 10], [2, 5, 10], [5, 9, 10], [6, 7, 10], [2, 9, 9], [5, 5, 9], [0]]
letting resourceUsage = [[[0, 0, 0, 0]], [[0, 7, 8, 4], [9, 0, 5, 4], [0, 6, 6, 4]], [[7, 0, 8, 4], [6, 0, 5, 3], [6, 0, 4, 2]], [[0, 9, 6, 2], [3, 0, 4, 2], [0, 6, 3, 1]], [[6, 0, 7, 8], [0, 9, 6, 8], [5, 0, 6, 8]], [[0, 6, 9, 8], [0, 5, 8, 5], [3, 0, 8, 2]], [[0, 5, 8, 7], [5, 0, 8, 8], [1, 0, 8, 7]], [[0, 8, 6, 6], [10, 0, 3, 6], [0, 6, 4, 6]], [[5, 0, 3, 10], [5, 0, 2, 10], [0, 3, 2, 10]], [[0, 8, 10, 4], [0, 6, 9, 3], [0, 2, 8, 1]], [[0, 4, 6, 5], [7, 0, 7, 3], [0, 4, 7, 3]], [[2, 0, 6, 7], [0, 6, 6, 5], [0, 4, 6, 5]], [[0, 8, 4, 9], [6, 0, 3, 4], [0, 8, 4, 6]], [[0, 7, 6, 8], [3, 0, 5, 6], [0, 4, 5, 4]], [[10, 0, 6, 7], [0, 7, 3, 5], [9, 0, 3, 4]], [[7, 0, 5, 10], [0, 5, 5, 10], [0, 3, 5, 9]], [[7, 0, 5, 6], [0, 7, 4, 3], [1, 0, 2, 2]], [[0, 6, 8, 5], [7, 0, 8, 3], [7, 0, 7, 3]], [[6, 0, 6, 8], [0, 4, 3, 8], [0, 2, 2, 6]], [[0, 8, 8, 4], [4, 0, 7, 2], [0, 7, 7, 2]], [[7, 0, 9, 8], [0, 9, 9, 7], [5, 0, 9, 4]], [[8, 0, 9, 2], [7, 0, 8, 1], [6, 0, 8, 1]], [[6, 0, 4, 5], [0, 4, 3, 5], [5, 0, 3, 3]], [[0, 2, 6, 3], [6, 0, 4, 2], [4, 0, 4, 2]], [[0, 4, 8, 6], [6, 0, 7, 6], [6, 0, 6, 5]], [[0, 8, 9, 3], [8, 0, 9, 2], [0, 8, 7, 2]], [[0, 8, 3, 9], [0, 1, 3, 8], [5, 0, 2, 5]], [[0, 10, 5, 10], [0, 7, 4, 10], [3, 0, 4, 9]], [[6, 0, 5, 8], [5, 0, 5, 8], [4, 0, 3, 7]], [[2, 0, 9, 4], [0, 4, 8, 3], [2, 0, 8, 3]], [[0, 6, 6, 8], [6, 0, 5, 9], [0, 5, 4, 6]], [[0, 0, 0, 0]]]
letting resourceLimits = [32, 28, 163, 145]
letting candidateParents = [[], [1, 3, 4, 8, 12, 14], [1, 2, 4, 5, 6, 7, 9, 10, 11, 12, 13, 15, 17, 18, 19, 20, 22, 23, 24, 25], [1, 2, 3, 5, 6, 7, 8, 9, 10, 11, 13, 15, 17, 22, 23, 25, 27], [2, 3, 4, 8, 10, 11, 12, 14, 15, 23], [3, 4, 5, 7, 8, 9, 10, 11, 12, 14, 15, 16, 18, 19, 21, 23, 24, 25, 26, 28], [3, 4, 5, 6, 8, 9, 10, 11, 12, 13, 14, 15, 17, 23, 25], [2, 3, 4, 5, 6, 7, 9, 10, 11, 12, 13, 15, 16, 17, 18, 19, 20, 22, 23, 24, 25, 31], [3, 4, 5, 6, 7, 8, 10, 11, 12, 13, 14, 15, 16, 17, 18, 19, 20, 22, 23, 24, 27, 31], [2, 3, 4, 5, 6, 7, 8, 9, 11, 12, 13, 14, 16, 17, 18, 19, 20, 21, 22, 23, 24, 26, 27, 28, 30, 31], [2, 3, 4, 5, 6, 7, 8, 9, 10, 12, 13, 14, 15, 16, 17, 18, 19, 20, 21, 22, 31], [2, 3, 4, 5, 6, 7, 8, 9, 10, 11, 13, 15, 17, 18, 19, 20, 21, 22, 23, 25, 27, 31], [3, 4, 6, 7, 8, 9, 10, 11, 12, 14, 15, 16, 17, 18, 19, 21, 23, 24, 25, 26, 28, 29], [2, 5, 6, 7, 8, 9, 10, 11, 12, 13, 15, 16, 17, 18, 19, 20, 21, 22, 23, 24, 25, 27, 30, 31], [3, 4, 5, 6, 7, 8, 9, 10, 11, 12, 13, 14, 16, 17, 18, 19, 20, 21, 22, 23, 24, 26, 27, 28, 30, 31], [3, 6, 7, 8, 9, 10, 11, 12, 13, 14, 15, 17, 18, 19, 20, 21, 22, 23, 24, 25, 26, 27, 30, 31], [3, 4, 6, 7, 8, 9, 10, 11, 12, 13, 14, 15, 16, 18, 19, 21, 22, 23, 24, 25, 26, 27, 28, 29, 30], [3, 4, 6, 7, 8, 9, 10, 11, 12, 13, 14, 15, 16, 17, 22, 23, 25, 27], [3, 6, 8, 9, 10, 11, 12, 13, 14, 15, 16, 17, 18, 20, 22, 23, 24, 25, 27, 31], [3, 8, 9, 10, 11, 12, 13, 14, 15, 16, 17, 18, 19, 21, 22, 23, 24, 25, 26, 27, 28, 29, 30], [6, 8, 9, 10, 11, 12, 13, 14, 15, 16, 17, 19, 20, 22, 23, 24, 25, 27, 31], [3, 4, 7, 8, 9, 10, 11, 12, 13, 14, 15, 16, 17, 18, 19, 20, 21, 23, 24, 25, 26, 28, 29], [3, 4, 5, 6, 7, 8, 9, 10, 11, 12, 13, 14, 15, 16, 17, 18, 19, 20, 21, 22, 25, 31], [3, 6, 8, 9, 10, 12, 13, 14, 15, 16, 17, 18, 19, 20, 21, 22, 23, 25, 26, 27, 31], [3, 4, 6, 7, 8, 9, 11, 12, 13, 14, 15, 16, 17, 18, 19, 20, 21, 22, 23, 24, 26, 27, 28, 30, 31], [6, 10, 13, 14, 15, 16, 17, 20, 21, 22, 23, 24, 25, 27, 30, 31], [4, 8, 9, 10, 12, 14, 15, 16, 17, 18, 19, 20, 21, 22, 23, 24, 25, 26, 28, 29, 31], [6, 10, 13, 15, 16, 17, 20, 22, 24, 25, 26, 27, 30, 31], [6, 13, 17, 20, 22, 25, 27, 28, 30, 31], [10, 14, 15, 16, 17, 20, 21, 24, 25, 26, 27, 28, 29, 31], [3, 8, 9, 10, 11, 12, 14, 15, 16, 19, 20, 21, 22, 23, 24, 25, 26, 27, 28, 29, 30], [29, 30, 31]]
